Route #1: 11 35 49 1 19 20
Route #2: 9 62 61 30 57 3
Route #3: 60 64 34 6 36 42 4 46
Route #4: 39 44 40 53 48
Route #5: 5 63 25 21 28 13
Route #6: 58 56 15 55 54 22 52 45 12
Route #7: 14 50 7 29 24 59 41 66
Route #8: 17 38 10 27 43 16 2
Route #9: 51 8 23 37 65 32
Route #10: 33 47 26 18 31
Cost 1101